p cnf 150 180
-90 97 53 0
-53 117 110 0
30 -118 41 0
128 133 -131 0
-85 12 -146 0
-149 -80 -82 0
-70 -150 -53 0
-89 -64 -125 0
-101 116 111 0
31 18 -5 0
-129 -114 -52 0
-108 -96 -146 0
-92 -68 24 0
-38 -87 120 0
-118 -32 111 0
-79 -16 90 0
102 22 -38 0
-9 38 126 0
114 39 -113 0
-33 108 135 0
134 -144 50 0
119 51 -31 0
93 -24 99 0
121 7 -21 0
110 15 -85 0
-93 75 -84 0
-50 -59 35 0
-39 102 48 0
50 -29 -4 0
63 111 71 0
-95 -136 -3 0
70 -109 26 0
-121 109 2 0
45 -67 84 0
9 -110 27 0
94 -93 -100 0
-99 -35 57 0
93 116 85 0
-51 41 -100 0
19 -119 -84 0
132 71 -28 0
-13 -125 -141 0
-141 133 25 0
-121 -50 8 0
67 -136 36 0
-101 99 140 0
-91 -69 -82 0
-109 13 -16 0
56 31 -47 0
-84 -62 -5 0
-90 41 57 0
56 -116 -9 0
62 19 49 0
-9 131 -106 0
-64 144 67 0
46 119 -121 0
-146 -24 46 0
-44 -56 -1 0
64 106 86 0
6 -137 -131 0
-87 -67 -109 0
-52 -86 -30 0
50 22 74 0
50 -115 60 0
-14 31 85 0
75 -107 36 0
-42 133 -103 0
-119 68 133 0
144 37 -140 0
-122 -121 -143 0
-94 -139 -89 0
-48 -78 -103 0
90 -142 -29 0
80 -34 98 0
-147 66 -108 0
117 -97 -30 0
-54 85 69 0
-131 111 55 0
-48 -109 130 0
89 -126 -14 0
1 48 113 0
-127 118 -149 0
-36 23 -124 0
82 -137 110 0
-119 110 -49 0
21 84 102 0
-75 -63 64 0
-119 6 -93 0
6 -52 51 0
-62 53 90 0
-69 22 -91 0
-114 -58 -1 0
111 33 -38 0
-110 -62 69 0
-87 -124 -94 0
81 44 -137 0
73 52 113 0
80 -39 -43 0
76 141 -45 0
-56 -143 -36 0
-144 -70 -122 0
-10 -103 6 0
-119 -87 -6 0
-150 -83 -126 0
-143 94 74 0
112 67 17 0
-47 79 -124 0
-133 41 62 0
91 -64 12 0
34 144 -12 0
73 -130 -50 0
-136 107 -19 0
80 8 -135 0
-24 -21 -42 0
-83 -115 -60 0
-77 -115 -66 0
-128 101 -141 0
-142 -134 15 0
121 -12 3 0
111 49 85 0
50 -66 38 0
96 91 -77 0
99 -124 131 0
124 114 148 0
-121 -127 91 0
122 109 -92 0
-45 -136 78 0
-56 78 -45 0
97 116 123 0
105 -123 -16 0
-42 -103 67 0
-83 18 47 0
40 -124 -68 0
-109 56 35 0
149 104 -90 0
40 128 -16 0
15 -36 45 0
-68 81 -135 0
33 146 23 0
70 -136 -10 0
-9 -86 131 0
93 120 22 0
-52 -139 39 0
2 131 30 0
149 -66 -90 0
124 66 -132 0
-70 118 -77 0
-10 -24 -55 0
145 12 -46 0
118 31 -7 0
x 5 -6 7 -9 11 12 -16 -17 -19 20 -22 23 24 -26 28 38 40 -41 -42 -43 -45 -46 -47 -48 50 54 -55 57 58 59 -62 -65 -66 68 69 70 -71 -73 77 -78 80 -81 -85 88 -89 90 -91 92 93 99 -101 102 -105 106 -108 109 110 112 -115 -118 120 122 123 -126 -130 131 -132 -133 137 -141 143 144 -145 148 149 0
x -1 -12 14 15 -17 -18 -21 -22 23 25 29 30 -31 -32 34 -35 -36 37 39 -40 42 -43 44 45 -47 50 53 55 -56 -58 -62 -63 -68 70 71 74 76 77 -78 -79 -81 -82 85 -88 90 95 96 -97 98 99 -101 102 104 105 106 -109 111 -114 116 -117 -119 123 -125 -128 -130 131 133 134 -135 139 140 -144 -145 -147 -150 0
x -1 2 -4 -5 8 9 10 -13 14 -16 17 21 -23 30 31 32 -33 -34 39 -40 42 -44 -47 -50 -55 57 -58 62 63 64 65 -67 -68 -70 71 -73 -74 76 77 -79 -84 86 -87 -88 -89 -92 -94 -95 97 98 -101 -103 108 -110 -111 112 -114 117 -118 122 -123 -124 -125 -127 128 129 -132 -133 -137 -138 -139 140 141 143 145 -147 -148 -150 0
x 1 3 4 -5 6 8 -14 15 18 19 20 25 -27 28 -33 -34 35 -36 -38 -39 40 41 44 -45 46 -47 50 56 57 58 -60 61 -64 -66 68 72 74 -75 76 -77 -80 82 -83 -85 86 -87 -88 90 91 -93 94 -95 96 -99 100 -102 103 104 105 -109 -110 -112 114 -116 117 -120 -124 -125 -127 129 131 -132 133 -134 -135 136 137 -138 140 141 -142 -143 146 -147 -148 -149 0
x 2 -3 4 -6 -7 -10 11 13 16 17 18 19 -20 -21 -22 24 26 -28 -29 30 -33 34 -35 36 39 41 -43 45 50 -51 55 56 -61 62 -63 66 -67 68 69 -70 -71 72 74 76 -82 -84 -85 -86 90 -92 98 99 -100 -101 103 106 -108 109 -111 -113 -117 -118 120 121 -124 128 130 134 135 -137 -141 143 144 145 -146 147 -148 0
x 1 -3 4 -5 7 -8 -10 12 -13 14 15 18 -19 23 26 -28 29 31 -36 -37 -39 40 43 45 46 -50 51 53 -55 56 58 59 60 62 -64 -65 -68 -69 72 74 76 77 84 -86 -87 -88 89 -91 92 -94 -99 -103 104 -105 -106 -108 111 -112 -113 114 -116 119 -121 122 123 -126 134 -135 136 -137 -138 -140 142 143 -145 -146 -149 -150 0
x -2 -3 4 -5 6 -7 10 14 -18 -19 -21 -22 -24 -25 -26 -27 29 32 -35 36 40 -41 -42 43 -45 48 -53 54 56 -58 59 60 64 65 66 67 71 -72 73 75 77 79 -80 -83 84 85 86 -89 90 -91 93 -94 95 -96 -98 -100 101 102 -104 105 -108 109 -111 -115 -116 119 124 -125 -126 -129 130 133 -135 138 -141 142 -143 146 147 -148 149 150 0
x 1 3 6 7 8 9 -10 12 -14 16 -17 -18 -21 24 -25 -26 27 28 29 -30 -31 -36 37 41 -46 48 49 -50 52 -53 -54 -55 56 -57 58 -60 62 -63 -64 67 69 -71 72 74 -77 78 -79 -80 -81 82 -84 -86 -87 -88 -93 94 95 98 -101 -102 103 105 -106 107 108 109 -110 -113 114 -115 -116 -119 -122 123 -125 -126 127 130 -136 -137 -138 -140 -141 144 -149 150 0
x -1 -7 -8 -10 -11 -12 14 -15 -16 18 -21 23 24 -25 -27 -29 -30 -31 -33 -34 -36 37 38 42 44 -46 -54 -57 63 -65 66 -69 70 -71 72 -73 -76 77 -78 82 -83 87 91 -93 96 -98 100 103 104 105 -108 -109 110 -111 -114 -117 119 120 -121 122 124 -127 -129 130 -132 -134 -136 -139 -140 -143 147 -149 0
x -2 -4 -8 10 18 19 -20 23 24 25 27 -29 -32 33 34 36 37 -38 41 -42 43 -44 -45 49 -54 -55 56 -58 -59 60 62 63 65 -67 -70 -72 -73 -75 76 77 81 82 84 85 87 -90 93 -94 -98 101 -103 104 106 111 -113 116 -120 121 -122 -123 124 127 130 132 133 -137 -140 -141 142 -143 147 -148 -149 150 0
x -2 3 4 -7 -8 10 -11 13 -15 -17 -19 -20 -22 -23 -24 25 -29 31 -32 -34 -36 -37 38 -41 -42 -43 44 -46 -47 48 49 53 -57 -62 -66 -67 68 70 73 -75 -80 -81 83 84 87 90 -92 -93 94 -96 -98 100 -105 -108 111 113 116 117 119 122 -123 124 -125 128 130 132 134 136 139 143 -144 -146 -147 -148 -149 -150 0
x 1 -2 3 4 -5 -6 7 -8 10 -12 13 -15 18 -21 24 25 -27 -28 31 33 -34 -35 36 41 -43 45 -51 53 -54 -55 -56 57 58 -59 63 65 -68 69 70 -71 73 -75 -76 -78 79 -80 -81 -83 84 85 87 -89 90 94 99 100 -105 -106 108 109 -111 115 116 117 -120 -122 125 -126 -128 -129 131 -134 135 136 -137 138 143 144 145 147 -149 0
x 1 3 -10 -12 -13 14 -16 -20 -22 -23 -27 -28 -29 30 31 34 -35 37 39 -40 43 -51 52 53 -54 -55 59 63 -66 70 71 72 74 76 -79 -80 81 85 -87 -89 -90 -92 -95 96 -97 -98 102 -103 105 106 108 110 -113 114 116 117 119 -120 -122 -123 -125 127 128 129 -130 131 -132 -134 135 -138 142 -145 -148 149 0
x -3 5 6 -9 10 15 17 -18 22 -26 27 29 30 32 33 34 35 -37 -38 43 -46 -47 -49 50 54 -61 -62 70 72 73 -75 -76 79 81 85 -86 -88 -90 93 96 97 99 -101 103 106 108 109 110 114 115 -116 119 120 121 -122 125 126 -128 -129 -131 140 143 144 145 146 147 -148 -150 0
x -3 -5 7 8 9 -12 -13 14 18 -20 -25 -28 29 -31 32 33 34 36 38 -39 41 -44 45 -48 49 50 -51 52 -54 56 -57 -60 -61 -62 -63 -64 65 -66 67 -73 -74 -76 -81 -84 85 87 89 -90 91 92 93 95 101 -102 -105 106 -107 -111 -113 114 -115 118 121 -123 -127 129 130 133 -135 137 -139 140 142 145 146 147 -149 0
x -3 -5 9 -13 -14 17 18 19 20 -22 24 -25 -31 -33 34 -35 36 39 40 -41 42 -44 -45 49 50 51 -52 55 56 -59 -63 -64 69 -71 -72 -73 79 -84 86 -87 -88 -89 -90 92 93 -95 96 99 -100 -103 -106 107 108 -109 -111 -114 -116 119 120 122 123 -125 126 -130 -132 133 134 135 -138 139 -142 -143 -146 -148 0
x 1 -2 -4 7 8 9 13 -14 -15 -16 -17 -19 22 -23 -25 27 29 32 36 -37 38 -39 -41 -44 45 -47 48 -49 52 53 54 -55 -56 57 61 -63 -65 -66 68 -69 72 73 77 -81 -83 84 -88 -89 91 95 97 -98 104 -106 -110 112 114 119 123 -124 -127 -132 136 -137 138 -141 -142 143 144 146 -147 0
x -1 2 -4 6 -7 8 9 -11 -12 -16 -19 -21 26 -27 28 -29 32 -33 -34 -36 -37 -40 42 -43 -44 46 -48 51 -53 -55 56 -57 -61 -62 65 66 -67 -68 -69 75 -76 77 83 84 -85 87 -88 89 -90 92 93 96 97 -98 99 100 101 -105 106 -107 -108 -111 -112 -114 115 -119 -121 122 -123 -124 -125 127 -129 -130 131 135 137 -141 142 143 -144 148 150 0
x 1 -3 -6 8 -9 14 15 -16 -17 22 23 -27 -30 -31 -34 -35 -37 -38 40 46 -47 48 49 -51 52 -55 -56 -57 58 -60 61 62 -63 65 68 -71 73 -74 -75 -76 -77 78 80 81 -82 -83 84 -89 -91 93 96 98 99 107 109 110 111 -112 -113 114 -116 118 -122 125 -127 -128 132 133 -135 -137 138 -139 -140 142 145 -147 0
x -1 3 -4 -9 10 -11 13 -15 18 19 -21 -26 28 -29 -30 31 -33 -34 38 41 -43 45 46 -47 -48 -50 -51 -52 56 -57 58 -59 -61 -62 64 -65 -66 69 -70 71 73 -75 -76 -77 78 -79 80 81 82 -83 -86 87 -93 96 -99 100 101 105 106 -108 114 115 -116 118 -119 121 124 -125 -127 132 133 -134 -136 139 147 -148 0
x -1 2 -5 -6 7 8 9 12 -14 -18 -21 22 -23 24 -25 -27 30 31 -32 -36 38 -39 -41 -42 43 45 51 54 60 61 63 -64 68 69 -70 73 74 75 -76 -79 83 -85 87 91 92 -94 95 96 -97 -99 105 106 107 109 -111 115 -116 -117 119 -121 -126 -127 -128 -130 -131 132 133 -136 -138 140 -141 -142 -145 -146 -147 148 -149 0
x -2 -3 4 -11 14 15 16 -21 -23 24 25 26 -28 31 32 -33 -35 36 37 -38 -39 -41 44 45 48 -49 50 -51 55 56 58 -61 62 -64 66 -70 -71 -72 73 -74 79 80 82 -83 84 88 -93 96 97 98 -100 101 -102 -105 108 -110 -111 114 116 -117 -118 -121 -124 125 129 -130 132 139 -143 145 -146 148 149 0
x 2 -9 -10 -13 15 -17 -18 -19 -22 23 25 27 28 30 32 36 37 39 -41 -42 -47 -48 49 52 -54 55 -56 -60 -61 62 64 -65 -66 -67 -72 -73 74 75 76 80 81 -82 83 -84 -86 88 90 91 -95 -97 -98 -99 100 101 102 103 -105 107 -110 111 115 116 118 120 -121 -123 125 -128 -132 -134 -136 137 -139 -141 143 -144 -145 -146 148 0
x -1 -6 -7 -8 13 -14 -16 -19 22 27 33 -36 -39 -40 41 -45 -49 52 -54 56 60 -61 -62 -63 -65 66 69 -74 76 -77 -80 81 84 85 86 -87 -88 90 -96 97 -100 102 105 -107 -109 -113 -116 120 -123 124 -125 130 132 -133 -134 -137 -138 -139 -142 -144 -145 -149 0
x 3 5 -9 -13 15 -16 -17 19 20 26 30 -31 -32 33 36 -37 -38 -39 -42 45 47 -48 49 -50 -51 -52 53 58 60 -61 -62 -63 66 -67 68 69 73 77 79 80 -82 83 -84 85 86 -87 -88 90 94 95 -96 -97 -98 -105 112 113 114 -115 -116 117 118 -119 -123 125 -131 -132 -133 136 137 -138 -141 142 -146 150 0
x -1 -2 -6 -12 -15 -16 19 -21 -22 23 -24 26 32 33 -39 40 -41 -42 43 -44 -45 46 -47 49 -50 52 53 -56 57 -58 59 62 70 71 -72 74 75 76 78 79 80 83 -84 85 86 -88 -89 -91 94 -95 96 97 101 102 -104 105 -106 107 -111 114 115 116 -118 -120 -121 -122 124 125 128 134 -139 -141 142 -149 150 0
x 1 2 -3 -4 -5 7 -11 -12 15 -17 -19 22 23 26 27 31 -33 35 36 37 38 40 -44 45 -46 47 -49 50 -53 55 -56 -57 60 65 68 70 -73 74 75 76 -77 79 -81 82 83 84 86 88 91 -92 -93 -94 -95 96 97 -98 103 -104 108 113 114 115 116 -118 -119 125 -127 -129 -131 133 136 137 -140 -143 -144 -146 147 -148 0
x -2 -3 5 9 12 -13 14 15 -19 20 23 24 -28 29 -30 -34 -35 38 39 -41 -42 -48 -49 50 51 56 -59 -61 -65 -68 70 72 -73 76 79 81 -82 -84 -86 -91 -93 -94 95 96 -98 103 106 107 108 109 111 -115 116 117 118 -119 -120 122 124 127 -128 129 -131 134 135 137 142 -144 -146 150 0
x 1 -2 -3 -4 -7 -10 -11 -13 -18 -23 24 25 -28 -29 31 -34 35 -36 -37 -39 -40 -42 -43 -46 48 49 -52 -54 -55 57 -58 59 -62 -65 -67 68 69 70 72 74 -75 -76 -78 -81 -82 -86 89 93 -94 -95 96 -97 98 100 102 103 106 -109 -111 -114 -115 -116 117 118 -121 123 124 125 128 -129 -131 -134 136 -143 -146 -148 -149 -150 0
x -8 -12 14 15 16 17 19 22 23 -29 -30 -31 -33 34 35 39 -41 43 46 -48 49 51 53 54 55 56 57 -58 59 -61 63 -65 -66 70 -75 76 -77 -79 81 -82 -83 -85 87 89 90 -92 97 -98 -101 102 -104 105 107 -108 -111 112 115 -117 -118 -119 120 -122 124 126 -129 131 -132 -135 137 138 140 -141 144 147 -148 -149 150 0
